; output/00001800.smt: generated with canalyze.
; $1 Assumption: true
(declare-const $1 Int)
(assert (and (< (- 2147483648) $1) (< $1 2147483647)))
(assert (not (= $1 0)))
; ((328600(S64) - (65720(S64) * (0(S64) + $cast: long $0$))) >= 65720(S64)) Assumption: true
(declare-const $0 Int)
(assert (and (< (- 2147483648) $0) (< $0 2147483647)))
(assert (>= (- 328600 (* 65720 (+ 0 $0))) 65720))
(check-sat)
